NAME : eil76.671446.tour
COMMENT : Cost = 0_671446
COMMENT : Found by LKH [Keld Helsgaun] Thu Nov 16 20:53:08 2017
TYPE : TOUR
DIMENSION : 80
TOUR_SECTION
1
43
41
42
64
22
61
69
71
60
70
20
37
36
47
21
28
78
62
74
48
5
15
57
13
54
19
8
46
67
76
75
77
33
6
68
4
34
52
27
45
29
30
2
73
80
26
7
35
53
14
59
11
66
65
38
10
58
72
12
40
17
51
79
63
16
3
44
32
9
39
31
55
25
50
18
24
49
23
56
-1
EOF
